c Reduced graph for R75_1gb generated by Cyril Grelier
p edge 69 249
e 1 8
e 1 9
e 1 19
e 1 21
e 1 33
e 1 38
e 1 42
e 1 45
e 1 49
e 1 52
e 1 58
e 1 62
e 2 3
e 2 5
e 2 9
e 2 26
e 2 29
e 2 30
e 2 34
e 2 42
e 2 50
e 2 54
e 2 63
e 3 4
e 3 11
e 3 15
e 3 29
e 3 39
e 3 42
e 3 44
e 3 47
e 3 68
e 3 69
e 4 14
e 4 15
e 4 20
e 4 24
e 4 29
e 4 33
e 4 36
e 4 38
e 4 43
e 4 60
e 5 11
e 5 24
e 5 26
e 5 27
e 5 33
e 5 41
e 5 44
e 5 52
e 5 55
e 6 12
e 6 14
e 6 15
e 6 17
e 6 27
e 6 30
e 6 33
e 6 37
e 6 43
e 6 50
e 7 13
e 7 17
e 7 29
e 7 36
e 7 38
e 7 46
e 7 52
e 7 56
e 7 60
e 7 62
e 8 10
e 8 16
e 8 26
e 8 32
e 8 35
e 8 36
e 8 44
e 8 55
e 8 65
e 9 22
e 9 25
e 9 26
e 9 34
e 9 35
e 9 37
e 9 55
e 9 67
e 10 11
e 10 24
e 10 27
e 10 31
e 10 42
e 10 51
e 10 56
e 10 58
e 11 12
e 11 14
e 11 19
e 11 21
e 11 48
e 11 62
e 12 16
e 12 18
e 12 20
e 12 29
e 12 47
e 12 49
e 12 61
e 13 17
e 13 19
e 13 25
e 13 29
e 13 33
e 13 41
e 13 56
e 13 57
e 14 18
e 14 23
e 14 26
e 14 45
e 14 47
e 14 53
e 15 26
e 15 35
e 15 40
e 15 41
e 15 57
e 15 61
e 16 28
e 16 35
e 16 36
e 16 41
e 16 53
e 16 58
e 16 59
e 17 20
e 17 25
e 17 35
e 17 41
e 17 60
e 17 67
e 18 19
e 18 23
e 18 30
e 18 31
e 18 36
e 18 47
e 18 53
e 19 20
e 19 21
e 19 33
e 19 50
e 19 57
e 20 25
e 20 28
e 20 30
e 20 54
e 20 57
e 21 23
e 21 26
e 21 28
e 21 46
e 21 62
e 22 23
e 22 24
e 22 36
e 22 51
e 22 56
e 22 59
e 22 63
e 23 54
e 23 59
e 23 61
e 23 65
e 24 28
e 24 29
e 24 39
e 24 45
e 25 31
e 25 38
e 25 58
e 25 66
e 26 30
e 27 34
e 27 37
e 27 44
e 27 59
e 27 61
e 28 40
e 28 49
e 28 54
e 28 60
e 29 47
e 30 40
e 30 50
e 31 50
e 31 62
e 31 65
e 31 68
e 32 41
e 32 49
e 32 53
e 32 59
e 32 63
e 32 65
e 33 45
e 34 39
e 34 45
e 34 48
e 34 66
e 35 47
e 35 48
e 36 37
e 37 39
e 37 53
e 37 55
e 38 39
e 38 57
e 38 67
e 39 43
e 39 48
e 40 42
e 40 46
e 40 51
e 40 54
e 41 53
e 42 50
e 42 51
e 43 45
e 43 46
e 43 49
e 43 64
e 44 48
e 44 55
e 44 66
e 46 49
e 46 54
e 48 52
e 51 60
e 51 63
e 52 55
e 52 56
e 58 64
e 61 68
e 64 66
e 64 69
e 67 69
